branch-and-cut/resultados/I080/i080-042.sol
1287
7
3 62
42 2
6 62
5 42
1 42
4 62
42 62
