branch-and-cut/resultados/I080/i080-042.log

Gurobi 10.0.3 (linux64) logging started Fri Dec 15 18:16:21 2023

Set parameter LogFile to value "resultados/I080/i080-042.log"
Set parameter Cutoff to value 2497
Gurobi Optimizer version 10.0.3 build v10.0.3rc0 (linux64)

CPU model: Intel(R) Core(TM) i7-8650U CPU @ 1.90GHz, instruction set [SSE2|AVX|AVX2]
Thread count: 4 physical cores, 8 logical processors, using up to 8 threads

Optimize a model with 6 rows, 632 columns and 114 nonzeros
Model fingerprint: 0x40279326
Variable types: 0 continuous, 632 integer (632 binary)
Coefficient statistics:
  Matrix range     [1e+00, 1e+00]
  Objective range  [8e+01, 3e+02]
  Bounds range     [1e+00, 1e+00]
  RHS range        [1e+00, 1e+00]
Presolve time: 0.00s
Presolved: 6 rows, 632 columns, 114 nonzeros
Variable types: 0 continuous, 632 integer (632 binary)

Root relaxation: objective 9.760000e+02, 7 iterations, 0.00 seconds (0.00 work units)

    Nodes    |    Current Node    |     Objective Bounds      |     Work
 Expl Unexpl |  Obj  Depth IntInf | Incumbent    BestBd   Gap | It/Node Time

     0     0  976.00000    0    -          -  976.00000      -     -    0s
     0     0 1027.00000    0    7          - 1027.00000      -     -    0s
     0     0 1077.00000    0    -          - 1077.00000      -     -    0s
     0     0 1120.50000    0    9          - 1120.50000      -     -    0s
     0     0 1162.00000    0    -          - 1162.00000      -     -    0s
     0     0 1169.00000    0    -          - 1169.00000      -     -    0s
     0     0 1170.50000    0    8          - 1170.50000      -     -    0s
     0     0 1173.50000    0    8          - 1173.50000      -     -    0s
     0     2 1175.50000    0    4          - 1175.50000      -     -    0s
*  293   223              15    1465.0000000 1196.00000  18.4%  12.1    1s
H 1058   318                    1368.0000000 1210.71598  11.5%  10.4    4s
  1059   314 1291.00000   21    8 1368.00000 1210.71598  11.5%  10.4    5s
* 1142   338              20    1287.0000000 1242.96817  3.42%  13.9    9s
  1214   275 1262.62742   21   50 1287.00000 1246.57513  3.14%  14.4   10s

Cutting planes:
  User: 61
  Gomory: 5
  MIR: 7
  Flow cover: 28
  Zero half: 15
  Lazy constraints: 16

Explored 1272 nodes (18912 simplex iterations) in 11.02 seconds (2.54 work units)
Thread count was 8 (of 8 available processors)

Solution count 3: 1287 1368 1465 

Optimal solution found (tolerance 1.00e-04)
Best objective 1.287000000000e+03, best bound 1.287000000000e+03, gap 0.0000%

User-callback calls 3973, time in user-callback 8.33 sec
